DIMENSION: 8
EDGE_WEIGHT_TYPE: EXPLICIT
EDGE_WEIGHT_FORMAT: FULL_MATRIX
EDGE_WEIGHT_SECTION:
32767 32767 31 32767 45 14 32767 32767 
32767 32767 7 32767 10 34 25 61 
31 7 32767 31 51 14 66 32767 
32767 32767 31 32767 32767 79 15 52 
45 10 51 32767 32767 55 53 69 
14 34 14 79 55 32767 21 50 
32767 25 66 15 53 21 32767 61 
32767 61 32767 52 69 50 61 32767 
EOF